NAME /Users/henri/Research/solvers/instances/idol-instances/robust/collection/spp_dkp_Lefebvre_et_al_2026/shortest_path_6_6/uncertainty_sets/discrete_knapsack
ROWS
 N  OBJ
 L  primal_lower
COLUMNS
    MARKER    'MARKER'                 'INTORG'
    y[0,1]     OBJ        0
    y[0,1]     primal_lower -0.08
    y[0,2]     OBJ        0
    y[0,2]     primal_lower -4.01
    y[0,3]     OBJ        0
    y[0,3]     primal_lower -1.28
    y[0,4]     OBJ        0
    y[0,4]     primal_lower -1.35
    y[0,5]     OBJ        0
    y[0,5]     primal_lower -3.56
    y[1,0]     OBJ        0
    y[1,0]     primal_lower -1.46
    y[1,2]     OBJ        0
    y[1,2]     primal_lower -3.89
    y[1,3]     OBJ        0
    y[1,3]     primal_lower -2.01
    y[1,4]     OBJ        0
    y[1,4]     primal_lower -2.47
    y[2,0]     OBJ        0
    y[2,0]     primal_lower -1.61
    y[2,1]     OBJ        0
    y[2,1]     primal_lower -0.51
    y[2,3]     OBJ        0
    y[2,3]     primal_lower -0.64
    y[2,4]     OBJ        0
    y[2,4]     primal_lower -2
    y[2,5]     OBJ        0
    y[2,5]     primal_lower -3.29
    y[3,0]     OBJ        0
    y[3,0]     primal_lower -2.07
    y[3,1]     OBJ        0
    y[3,1]     primal_lower -2.67
    y[3,2]     OBJ        0
    y[3,2]     primal_lower -1.52
    y[3,5]     OBJ        0
    y[3,5]     primal_lower -2.04
    y[4,0]     OBJ        0
    y[4,0]     primal_lower -0.84
    y[4,1]     OBJ        0
    y[4,1]     primal_lower -1.84
    y[4,2]     OBJ        0
    y[4,2]     primal_lower -0.59
    y[5,0]     OBJ        0
    y[5,0]     primal_lower -0.17
    y[5,2]     OBJ        0
    y[5,2]     primal_lower -0.37
    y[5,3]     OBJ        0
    y[5,3]     primal_lower -0.96
    u[0,1]     OBJ        0
    u[0,1]     primal_lower 51
    u[0,2]     OBJ        0
    u[0,2]     primal_lower 25
    u[0,3]     OBJ        0
    u[0,3]     primal_lower 23
    u[0,4]     OBJ        0
    u[0,4]     primal_lower 10
    u[0,5]     OBJ        0
    u[0,5]     primal_lower 33
    u[1,0]     OBJ        0
    u[1,0]     primal_lower 67
    u[1,2]     OBJ        0
    u[1,2]     primal_lower 78
    u[1,3]     OBJ        0
    u[1,3]     primal_lower 75
    u[1,4]     OBJ        0
    u[1,4]     primal_lower 83
    u[2,0]     OBJ        0
    u[2,0]     primal_lower 33
    u[2,1]     OBJ        0
    u[2,1]     primal_lower 49
    u[2,3]     OBJ        0
    u[2,3]     primal_lower 92
    u[2,4]     OBJ        0
    u[2,4]     primal_lower 36
    u[2,5]     OBJ        0
    u[2,5]     primal_lower 9
    u[3,0]     OBJ        0
    u[3,0]     primal_lower 83
    u[3,1]     OBJ        0
    u[3,1]     primal_lower 63
    u[3,2]     OBJ        0
    u[3,2]     primal_lower 48
    u[3,5]     OBJ        0
    u[3,5]     primal_lower 74
    u[4,0]     OBJ        0
    u[4,0]     primal_lower 13
    u[4,1]     OBJ        0
    u[4,1]     primal_lower 86
    u[4,2]     OBJ        0
    u[4,2]     primal_lower 27
    u[5,0]     OBJ        0
    u[5,0]     primal_lower 42
    u[5,2]     OBJ        0
    u[5,2]     primal_lower 22
    u[5,3]     OBJ        0
    u[5,3]     primal_lower 74
    MARKER    'MARKER'                 'INTEND'
RHS
    RHS       primal_lower 108
BOUNDS
 LI BND       y[0,1]     0
 UI BND       y[0,1]     1
 LI BND       y[0,2]     0
 UI BND       y[0,2]     1
 LI BND       y[0,3]     0
 UI BND       y[0,3]     1
 LI BND       y[0,4]     0
 UI BND       y[0,4]     1
 LI BND       y[0,5]     0
 UI BND       y[0,5]     1
 LI BND       y[1,0]     0
 UI BND       y[1,0]     1
 LI BND       y[1,2]     0
 UI BND       y[1,2]     1
 LI BND       y[1,3]     0
 UI BND       y[1,3]     1
 LI BND       y[1,4]     0
 UI BND       y[1,4]     1
 LI BND       y[2,0]     0
 UI BND       y[2,0]     1
 LI BND       y[2,1]     0
 UI BND       y[2,1]     1
 LI BND       y[2,3]     0
 UI BND       y[2,3]     1
 LI BND       y[2,4]     0
 UI BND       y[2,4]     1
 LI BND       y[2,5]     0
 UI BND       y[2,5]     1
 LI BND       y[3,0]     0
 UI BND       y[3,0]     1
 LI BND       y[3,1]     0
 UI BND       y[3,1]     1
 LI BND       y[3,2]     0
 UI BND       y[3,2]     1
 LI BND       y[3,5]     0
 UI BND       y[3,5]     1
 LI BND       y[4,0]     0
 UI BND       y[4,0]     1
 LI BND       y[4,1]     0
 UI BND       y[4,1]     1
 LI BND       y[4,2]     0
 UI BND       y[4,2]     1
 LI BND       y[5,0]     0
 UI BND       y[5,0]     1
 LI BND       y[5,2]     0
 UI BND       y[5,2]     1
 LI BND       y[5,3]     0
 UI BND       y[5,3]     1
 LI BND       u[0,1]     0
 UI BND       u[0,1]     1
 LI BND       u[0,2]     0
 UI BND       u[0,2]     1
 LI BND       u[0,3]     0
 UI BND       u[0,3]     1
 LI BND       u[0,4]     0
 UI BND       u[0,4]     1
 LI BND       u[0,5]     0
 UI BND       u[0,5]     1
 LI BND       u[1,0]     0
 UI BND       u[1,0]     1
 LI BND       u[1,2]     0
 UI BND       u[1,2]     1
 LI BND       u[1,3]     0
 UI BND       u[1,3]     1
 LI BND       u[1,4]     0
 UI BND       u[1,4]     1
 LI BND       u[2,0]     0
 UI BND       u[2,0]     1
 LI BND       u[2,1]     0
 UI BND       u[2,1]     1
 LI BND       u[2,3]     0
 UI BND       u[2,3]     1
 LI BND       u[2,4]     0
 UI BND       u[2,4]     1
 LI BND       u[2,5]     0
 UI BND       u[2,5]     1
 LI BND       u[3,0]     0
 UI BND       u[3,0]     1
 LI BND       u[3,1]     0
 UI BND       u[3,1]     1
 LI BND       u[3,2]     0
 UI BND       u[3,2]     1
 LI BND       u[3,5]     0
 UI BND       u[3,5]     1
 LI BND       u[4,0]     0
 UI BND       u[4,0]     1
 LI BND       u[4,1]     0
 UI BND       u[4,1]     1
 LI BND       u[4,2]     0
 UI BND       u[4,2]     1
 LI BND       u[5,0]     0
 UI BND       u[5,0]     1
 LI BND       u[5,2]     0
 UI BND       u[5,2]     1
 LI BND       u[5,3]     0
 UI BND       u[5,3]     1
ENDATA
